# Objective value = 30
WA1n 0
WA1p 0
WA2n 1
WA2p 0
WB1n 1
WB1p 0
WC1n 0
WC1p 1
WD1n 0
WD1p 1
WD2n 0
WD2p 1
WE1n 2
WE1p 0
WF1n 2
WF1p 0
WG1n 0
WG1p 6
WG2n 0
WG2p 1
WH1n 8
WH1p 0
WH2n 1
WH2p 0
WT1n 0
WT1p 1
5 7
a 0
b 0
c 0
d 1
e 1
f 1
g 0
h 0
i 1
j 1
k 0
l 0
m 1
